\Problem name: compact

Minimize
OBJROW: C
Subject To
ord(0,1):  x(0,0) - x(0,1) >= 2
ord(0,2):  - x(0,0) + x(0,2) >= 6
ord(1,1):  - x(1,0) + x(1,1) >= 8
ord(1,2):  - x(1,1) + x(1,2) >= 2
ord(2,1):  x(2,1) - x(2,2) >= 3
ord(2,2):  x(2,0) - x(2,1) >= 4
ord(3,1):  x(3,1) - x(3,2) >= 9
ord(3,2):  x(3,0) - x(3,1) >= 3
ord(4,1):  - x(4,1) + x(4,2) >= 6
ord(4,2):  x(4,0) - x(4,2) >= 9
triangle2(0,1,0):  y(0,1,0) + y(1,0,0) = 1
triangle2(0,1,1):  y(0,1,1) + y(1,0,1) = 1
triangle2(0,1,2):  y(0,1,2) + y(1,0,2) = 1
triangle2(0,2,0):  y(0,2,0) + y(2,0,0) = 1
triangle2(0,2,1):  y(0,2,1) + y(2,0,1) = 1
triangle2(0,2,2):  y(0,2,2) + y(2,0,2) = 1
triangle2(0,3,0):  y(0,3,0) + y(3,0,0) = 1
triangle2(0,3,1):  y(0,3,1) + y(3,0,1) = 1
triangle2(0,3,2):  y(0,3,2) + y(3,0,2) = 1
triangle2(0,4,0):  y(0,4,0) + y(4,0,0) = 1
triangle2(0,4,1):  y(0,4,1) + y(4,0,1) = 1
triangle2(0,4,2):  y(0,4,2) + y(4,0,2) = 1
triangle2(1,2,0):  y(1,2,0) + y(2,1,0) = 1
triangle2(1,2,1):  y(1,2,1) + y(2,1,1) = 1
triangle2(1,2,2):  y(1,2,2) + y(2,1,2) = 1
triangle2(1,3,0):  y(1,3,0) + y(3,1,0) = 1
triangle2(1,3,1):  y(1,3,1) + y(3,1,1) = 1
triangle2(1,3,2):  y(1,3,2) + y(3,1,2) = 1
triangle2(1,4,0):  y(1,4,0) + y(4,1,0) = 1
triangle2(1,4,1):  y(1,4,1) + y(4,1,1) = 1
triangle2(1,4,2):  y(1,4,2) + y(4,1,2) = 1
triangle2(2,3,0):  y(2,3,0) + y(3,2,0) = 1
triangle2(2,3,1):  y(2,3,1) + y(3,2,1) = 1
triangle2(2,3,2):  y(2,3,2) + y(3,2,2) = 1
triangle2(2,4,0):  y(2,4,0) + y(4,2,0) = 1
triangle2(2,4,1):  y(2,4,1) + y(4,2,1) = 1
triangle2(2,4,2):  y(2,4,2) + y(4,2,2) = 1
triangle2(3,4,0):  y(3,4,0) + y(4,3,0) = 1
triangle2(3,4,1):  y(3,4,1) + y(4,3,1) = 1
triangle2(3,4,2):  y(3,4,2) + y(4,3,2) = 1
MCLinV(0,1,0):  x(0,0) - v(0,1,0) - x(1,0) = 8
MCLinV(1,0,0):  - x(0,0) - v(1,0,0) + x(1,0) = 6
MCLin1(0,1,0):  u(0,1,0) >= -0
MCLin2(0,1,0):  -76 y(1,0,0) - u(0,1,0) <= -0
MCLin3(0,1,0):  73 y(1,0,0) + v(0,1,0) - u(0,1,0) <= 73
MCLin4(0,1,0):  73 y(1,0,0) - u(0,1,0) >= -0
MCLin5(0,1,0):  -76 y(1,0,0) + v(0,1,0) - u(0,1,0) >= -76
MCLin6(1,0,0):  u(1,0,0) >= -0
MCLin7(1,0,0):  -87 y(0,1,0) - u(1,0,0) <= -0
MCLin8(1,0,0):  62 y(0,1,0) + v(1,0,0) - u(1,0,0) <= 62
MCLin9(1,0,0):  62 y(0,1,0) - u(1,0,0) >= -0
MCLin10(1,0,0):  -87 y(0,1,0) + v(1,0,0) - u(1,0,0) >= -87
MCLinV(0,1,1):  x(0,1) - v(0,1,1) - x(1,1) = 2
MCLinV(1,0,1):  - x(0,1) - v(1,0,1) + x(1,1) = 2
MCLin1(0,1,1):  u(0,1,1) >= -0
MCLin2(0,1,1):  -80 y(1,0,1) - u(0,1,1) <= -0
MCLin3(0,1,1):  69 y(1,0,1) + v(0,1,1) - u(0,1,1) <= 69
MCLin4(0,1,1):  69 y(1,0,1) - u(0,1,1) >= -0
MCLin5(0,1,1):  -80 y(1,0,1) + v(0,1,1) - u(0,1,1) >= -80
MCLin6(1,0,1):  u(1,0,1) >= -0
MCLin7(1,0,1):  -73 y(0,1,1) - u(1,0,1) <= -0
MCLin8(1,0,1):  76 y(0,1,1) + v(1,0,1) - u(1,0,1) <= 76
MCLin9(1,0,1):  76 y(0,1,1) - u(1,0,1) >= -0
MCLin10(1,0,1):  -73 y(0,1,1) + v(1,0,1) - u(1,0,1) >= -73
MCLinV(0,1,2):  x(0,2) - v(0,1,2) - x(1,2) = 10
MCLinV(1,0,2):  - x(0,2) - v(1,0,2) + x(1,2) = 3
MCLin1(0,1,2):  u(0,1,2) >= -0
MCLin2(0,1,2):  -82 y(1,0,2) - u(0,1,2) <= -0
MCLin3(0,1,2):  67 y(1,0,2) + v(0,1,2) - u(0,1,2) <= 67
MCLin4(0,1,2):  67 y(1,0,2) - u(0,1,2) >= -0
MCLin5(0,1,2):  -82 y(1,0,2) + v(0,1,2) - u(0,1,2) >= -82
MCLin6(1,0,2):  u(1,0,2) >= -0
MCLin7(1,0,2):  -80 y(0,1,2) - u(1,0,2) <= -0
MCLin8(1,0,2):  69 y(0,1,2) + v(1,0,2) - u(1,0,2) <= 69
MCLin9(1,0,2):  69 y(0,1,2) - u(1,0,2) >= -0
MCLin10(1,0,2):  -80 y(0,1,2) + v(1,0,2) - u(1,0,2) >= -80
MCLinV(0,2,0):  x(0,0) - v(0,2,0) - x(2,0) = 8
MCLinV(2,0,0):  - x(0,0) - v(2,0,0) + x(2,0) = 6
MCLin1(0,2,0):  u(0,2,0) >= -0
MCLin2(0,2,0):  -88 y(2,0,0) - u(0,2,0) <= -0
MCLin3(0,2,0):  66 y(2,0,0) + v(0,2,0) - u(0,2,0) <= 66
MCLin4(0,2,0):  66 y(2,0,0) - u(0,2,0) >= -0
MCLin5(0,2,0):  -88 y(2,0,0) + v(0,2,0) - u(0,2,0) >= -88
MCLin6(2,0,0):  u(2,0,0) >= -0
MCLin7(2,0,0):  -80 y(0,2,0) - u(2,0,0) <= -0
MCLin8(2,0,0):  74 y(0,2,0) + v(2,0,0) - u(2,0,0) <= 74
MCLin9(2,0,0):  74 y(0,2,0) - u(2,0,0) >= -0
MCLin10(2,0,0):  -80 y(0,2,0) + v(2,0,0) - u(2,0,0) >= -80
MCLinV(0,2,1):  x(0,1) - v(0,2,1) - x(2,1) = 4
MCLinV(2,0,1):  - x(0,1) - v(2,0,1) + x(2,1) = 2
MCLin1(0,2,1):  u(0,2,1) >= -0
MCLin2(0,2,1):  -82 y(2,0,1) - u(0,2,1) <= -0
MCLin3(0,2,1):  72 y(2,0,1) + v(0,2,1) - u(0,2,1) <= 72
MCLin4(0,2,1):  72 y(2,0,1) - u(0,2,1) >= -0
MCLin5(0,2,1):  -82 y(2,0,1) + v(0,2,1) - u(0,2,1) >= -82
MCLin6(2,0,1):  u(2,0,1) >= -0
MCLin7(2,0,1):  -78 y(0,2,1) - u(2,0,1) <= -0
MCLin8(2,0,1):  76 y(0,2,1) + v(2,0,1) - u(2,0,1) <= 76
MCLin9(2,0,1):  76 y(0,2,1) - u(2,0,1) >= -0
MCLin10(2,0,1):  -78 y(0,2,1) + v(2,0,1) - u(2,0,1) >= -78
MCLinV(0,2,2):  x(0,2) - v(0,2,2) - x(2,2) = 3
MCLinV(2,0,2):  - x(0,2) - v(2,0,2) + x(2,2) = 3
MCLin1(0,2,2):  u(0,2,2) >= -0
MCLin2(0,2,2):  -70 y(2,0,2) - u(0,2,2) <= -0
MCLin3(0,2,2):  84 y(2,0,2) + v(0,2,2) - u(0,2,2) <= 84
MCLin4(0,2,2):  84 y(2,0,2) - u(0,2,2) >= -0
MCLin5(0,2,2):  -70 y(2,0,2) + v(0,2,2) - u(0,2,2) >= -70
MCLin6(2,0,2):  u(2,0,2) >= -0
MCLin7(2,0,2):  -90 y(0,2,2) - u(2,0,2) <= -0
MCLin8(2,0,2):  64 y(0,2,2) + v(2,0,2) - u(2,0,2) <= 64
MCLin9(2,0,2):  64 y(0,2,2) - u(2,0,2) >= -0
MCLin10(2,0,2):  -90 y(0,2,2) + v(2,0,2) - u(2,0,2) >= -90
MCLinV(0,3,0):  x(0,0) - v(0,3,0) - x(3,0) = 7
MCLinV(3,0,0):  - x(0,0) - v(3,0,0) + x(3,0) = 6
MCLin1(0,3,0):  u(0,3,0) >= -0
MCLin2(0,3,0):  -88 y(3,0,0) - u(0,3,0) <= -0
MCLin3(0,3,0):  62 y(3,0,0) + v(0,3,0) - u(0,3,0) <= 62
MCLin4(0,3,0):  62 y(3,0,0) - u(0,3,0) >= -0
MCLin5(0,3,0):  -88 y(3,0,0) + v(0,3,0) - u(0,3,0) >= -88
MCLin6(3,0,0):  u(3,0,0) >= -0
MCLin7(3,0,0):  -75 y(0,3,0) - u(3,0,0) <= -0
MCLin8(3,0,0):  75 y(0,3,0) + v(3,0,0) - u(3,0,0) <= 75
MCLin9(3,0,0):  75 y(0,3,0) - u(3,0,0) >= -0
MCLin10(3,0,0):  -75 y(0,3,0) + v(3,0,0) - u(3,0,0) >= -75
MCLinV(0,3,1):  x(0,1) - v(0,3,1) - x(3,1) = 3
MCLinV(3,0,1):  - x(0,1) - v(3,0,1) + x(3,1) = 2
MCLin1(0,3,1):  u(0,3,1) >= -0
MCLin2(0,3,1):  -83 y(3,0,1) - u(0,3,1) <= -0
MCLin3(0,3,1):  67 y(3,0,1) + v(0,3,1) - u(0,3,1) <= 67
MCLin4(0,3,1):  67 y(3,0,1) - u(0,3,1) >= -0
MCLin5(0,3,1):  -83 y(3,0,1) + v(0,3,1) - u(0,3,1) >= -83
MCLin6(3,0,1):  u(3,0,1) >= -0
MCLin7(3,0,1):  -72 y(0,3,1) - u(3,0,1) <= -0
MCLin8(3,0,1):  78 y(0,3,1) + v(3,0,1) - u(3,0,1) <= 78
MCLin9(3,0,1):  78 y(0,3,1) - u(3,0,1) >= -0
MCLin10(3,0,1):  -72 y(0,3,1) + v(3,0,1) - u(3,0,1) >= -72
MCLinV(0,3,2):  x(0,2) - v(0,3,2) - x(3,2) = 9
MCLinV(3,0,2):  - x(0,2) - v(3,0,2) + x(3,2) = 3
MCLin1(0,3,2):  u(0,3,2) >= -0
MCLin2(0,3,2):  -72 y(3,0,2) - u(0,3,2) <= -0
MCLin3(0,3,2):  78 y(3,0,2) + v(0,3,2) - u(0,3,2) <= 78
MCLin4(0,3,2):  78 y(3,0,2) - u(0,3,2) >= -0
MCLin5(0,3,2):  -72 y(3,0,2) + v(0,3,2) - u(0,3,2) >= -72
MCLin6(3,0,2):  u(3,0,2) >= -0
MCLin7(3,0,2):  -90 y(0,3,2) - u(3,0,2) <= -0
MCLin8(3,0,2):  60 y(0,3,2) + v(3,0,2) - u(3,0,2) <= 60
MCLin9(3,0,2):  60 y(0,3,2) - u(3,0,2) >= -0
MCLin10(3,0,2):  -90 y(0,3,2) + v(3,0,2) - u(3,0,2) >= -90
MCLinV(0,4,0):  x(0,0) - v(0,4,0) - x(4,0) = 10
MCLinV(4,0,0):  - x(0,0) - v(4,0,0) + x(4,0) = 6
MCLin1(0,4,0):  u(0,4,0) >= -0
MCLin2(0,4,0):  -88 y(4,0,0) - u(0,4,0) <= -0
MCLin3(0,4,0):  56 y(4,0,0) + v(0,4,0) - u(0,4,0) <= 56
MCLin4(0,4,0):  56 y(4,0,0) - u(0,4,0) >= -0
MCLin5(0,4,0):  -88 y(4,0,0) + v(0,4,0) - u(0,4,0) >= -88
MCLin6(4,0,0):  u(4,0,0) >= -0
MCLin7(4,0,0):  -72 y(0,4,0) - u(4,0,0) <= -0
MCLin8(4,0,0):  72 y(0,4,0) + v(4,0,0) - u(4,0,0) <= 72
MCLin9(4,0,0):  72 y(0,4,0) - u(4,0,0) >= -0
MCLin10(4,0,0):  -72 y(0,4,0) + v(4,0,0) - u(4,0,0) >= -72
MCLinV(0,4,1):  x(0,1) - v(0,4,1) - x(4,1) = 6
MCLinV(4,0,1):  - x(0,1) - v(4,0,1) + x(4,1) = 2
MCLin1(0,4,1):  u(0,4,1) >= -0
MCLin2(0,4,1):  -71 y(4,0,1) - u(0,4,1) <= -0
MCLin3(0,4,1):  73 y(4,0,1) + v(0,4,1) - u(0,4,1) <= 73
MCLin4(0,4,1):  73 y(4,0,1) - u(0,4,1) >= -0
MCLin5(0,4,1):  -71 y(4,0,1) + v(0,4,1) - u(0,4,1) >= -71
MCLin6(4,0,1):  u(4,0,1) >= -0
MCLin7(4,0,1):  -81 y(0,4,1) - u(4,0,1) <= -0
MCLin8(4,0,1):  63 y(0,4,1) + v(4,0,1) - u(4,0,1) <= 63
MCLin9(4,0,1):  63 y(0,4,1) - u(4,0,1) >= -0
MCLin10(4,0,1):  -81 y(0,4,1) + v(4,0,1) - u(4,0,1) >= -81
MCLinV(0,4,2):  x(0,2) - v(0,4,2) - x(4,2) = 9
MCLinV(4,0,2):  - x(0,2) - v(4,0,2) + x(4,2) = 3
MCLin1(0,4,2):  u(0,4,2) >= -0
MCLin2(0,4,2):  -72 y(4,0,2) - u(0,4,2) <= -0
MCLin3(0,4,2):  72 y(4,0,2) + v(0,4,2) - u(0,4,2) <= 72
MCLin4(0,4,2):  72 y(4,0,2) - u(0,4,2) >= -0
MCLin5(0,4,2):  -72 y(4,0,2) + v(0,4,2) - u(0,4,2) >= -72
MCLin6(4,0,2):  u(4,0,2) >= -0
MCLin7(4,0,2):  -84 y(0,4,2) - u(4,0,2) <= -0
MCLin8(4,0,2):  60 y(0,4,2) + v(4,0,2) - u(4,0,2) <= 60
MCLin9(4,0,2):  60 y(0,4,2) - u(4,0,2) >= -0
MCLin10(4,0,2):  -84 y(0,4,2) + v(4,0,2) - u(4,0,2) >= -84
MCLinV(1,2,0):  x(1,0) - v(1,2,0) - x(2,0) = 8
MCLinV(2,1,0):  - x(1,0) - v(2,1,0) + x(2,0) = 8
MCLin1(1,2,0):  u(1,2,0) >= -0
MCLin2(1,2,0):  -90 y(2,1,0) - u(1,2,0) <= -0
MCLin3(1,2,0):  55 y(2,1,0) + v(1,2,0) - u(1,2,0) <= 55
MCLin4(1,2,0):  55 y(2,1,0) - u(1,2,0) >= -0
MCLin5(1,2,0):  -90 y(2,1,0) + v(1,2,0) - u(1,2,0) >= -90
MCLin6(2,1,0):  u(2,1,0) >= -0
MCLin7(2,1,0):  -71 y(1,2,0) - u(2,1,0) <= -0
MCLin8(2,1,0):  74 y(1,2,0) + v(2,1,0) - u(2,1,0) <= 74
MCLin9(2,1,0):  74 y(1,2,0) - u(2,1,0) >= -0
MCLin10(2,1,0):  -71 y(1,2,0) + v(2,1,0) - u(2,1,0) >= -71
MCLinV(1,2,1):  x(1,1) - v(1,2,1) - x(2,1) = 4
MCLinV(2,1,1):  - x(1,1) - v(2,1,1) + x(2,1) = 2
MCLin1(1,2,1):  u(1,2,1) >= -0
MCLin2(1,2,1):  -74 y(2,1,1) - u(1,2,1) <= -0
MCLin3(1,2,1):  71 y(2,1,1) + v(1,2,1) - u(1,2,1) <= 71
MCLin4(1,2,1):  71 y(2,1,1) - u(1,2,1) >= -0
MCLin5(1,2,1):  -74 y(2,1,1) + v(1,2,1) - u(1,2,1) >= -74
MCLin6(2,1,1):  u(2,1,1) >= -0
MCLin7(2,1,1):  -77 y(1,2,1) - u(2,1,1) <= -0
MCLin8(2,1,1):  68 y(1,2,1) + v(2,1,1) - u(2,1,1) <= 68
MCLin9(2,1,1):  68 y(1,2,1) - u(2,1,1) >= -0
MCLin10(2,1,1):  -77 y(1,2,1) + v(2,1,1) - u(2,1,1) >= -77
MCLinV(1,2,2):  x(1,2) - v(1,2,2) - x(2,2) = 3
MCLinV(2,1,2):  - x(1,2) - v(2,1,2) + x(2,2) = 10
MCLin1(1,2,2):  u(1,2,2) >= -0
MCLin2(1,2,2):  -68 y(2,1,2) - u(1,2,2) <= -0
MCLin3(1,2,2):  77 y(2,1,2) + v(1,2,2) - u(1,2,2) <= 77
MCLin4(1,2,2):  77 y(2,1,2) - u(1,2,2) >= -0
MCLin5(1,2,2):  -68 y(2,1,2) + v(1,2,2) - u(1,2,2) >= -68
MCLin6(2,1,2):  u(2,1,2) >= -0
MCLin7(2,1,2):  -90 y(1,2,2) - u(2,1,2) <= -0
MCLin8(2,1,2):  55 y(1,2,2) + v(2,1,2) - u(2,1,2) <= 55
MCLin9(2,1,2):  55 y(1,2,2) - u(2,1,2) >= -0
MCLin10(2,1,2):  -90 y(1,2,2) + v(2,1,2) - u(2,1,2) >= -90
MCLinV(1,3,0):  x(1,0) - v(1,3,0) - x(3,0) = 7
MCLinV(3,1,0):  - x(1,0) - v(3,1,0) + x(3,0) = 8
MCLin1(1,3,0):  u(1,3,0) >= -0
MCLin2(1,3,0):  -90 y(3,1,0) - u(1,3,0) <= -0
MCLin3(1,3,0):  51 y(3,1,0) + v(1,3,0) - u(1,3,0) <= 51
MCLin4(1,3,0):  51 y(3,1,0) - u(1,3,0) >= -0
MCLin5(1,3,0):  -90 y(3,1,0) + v(1,3,0) - u(1,3,0) >= -90
MCLin6(3,1,0):  u(3,1,0) >= -0
MCLin7(3,1,0):  -66 y(1,3,0) - u(3,1,0) <= -0
MCLin8(3,1,0):  75 y(1,3,0) + v(3,1,0) - u(3,1,0) <= 75
MCLin9(3,1,0):  75 y(1,3,0) - u(3,1,0) >= -0
MCLin10(3,1,0):  -66 y(1,3,0) + v(3,1,0) - u(3,1,0) >= -66
MCLinV(1,3,1):  x(1,1) - v(1,3,1) - x(3,1) = 3
MCLinV(3,1,1):  - x(1,1) - v(3,1,1) + x(3,1) = 2
MCLin1(1,3,1):  u(1,3,1) >= -0
MCLin2(1,3,1):  -75 y(3,1,1) - u(1,3,1) <= -0
MCLin3(1,3,1):  66 y(3,1,1) + v(1,3,1) - u(1,3,1) <= 66
MCLin4(1,3,1):  66 y(3,1,1) - u(1,3,1) >= -0
MCLin5(1,3,1):  -75 y(3,1,1) + v(1,3,1) - u(1,3,1) >= -75
MCLin6(3,1,1):  u(3,1,1) >= -0
MCLin7(3,1,1):  -71 y(1,3,1) - u(3,1,1) <= -0
MCLin8(3,1,1):  70 y(1,3,1) + v(3,1,1) - u(3,1,1) <= 70
MCLin9(3,1,1):  70 y(1,3,1) - u(3,1,1) >= -0
MCLin10(3,1,1):  -71 y(1,3,1) + v(3,1,1) - u(3,1,1) >= -71
MCLinV(1,3,2):  x(1,2) - v(1,3,2) - x(3,2) = 9
MCLinV(3,1,2):  - x(1,2) - v(3,1,2) + x(3,2) = 10
MCLin1(1,3,2):  u(1,3,2) >= -0
MCLin2(1,3,2):  -70 y(3,1,2) - u(1,3,2) <= -0
MCLin3(1,3,2):  71 y(3,1,2) + v(1,3,2) - u(1,3,2) <= 71
MCLin4(1,3,2):  71 y(3,1,2) - u(1,3,2) >= -0
MCLin5(1,3,2):  -70 y(3,1,2) + v(1,3,2) - u(1,3,2) >= -70
MCLin6(3,1,2):  u(3,1,2) >= -0
MCLin7(3,1,2):  -90 y(1,3,2) - u(3,1,2) <= -0
MCLin8(3,1,2):  51 y(1,3,2) + v(3,1,2) - u(3,1,2) <= 51
MCLin9(3,1,2):  51 y(1,3,2) - u(3,1,2) >= -0
MCLin10(3,1,2):  -90 y(1,3,2) + v(3,1,2) - u(3,1,2) >= -90
MCLinV(1,4,0):  x(1,0) - v(1,4,0) - x(4,0) = 10
MCLinV(4,1,0):  - x(1,0) - v(4,1,0) + x(4,0) = 8
MCLin1(1,4,0):  u(1,4,0) >= -0
MCLin2(1,4,0):  -90 y(4,1,0) - u(1,4,0) <= -0
MCLin3(1,4,0):  45 y(4,1,0) + v(1,4,0) - u(1,4,0) <= 45
MCLin4(1,4,0):  45 y(4,1,0) - u(1,4,0) >= -0
MCLin5(1,4,0):  -90 y(4,1,0) + v(1,4,0) - u(1,4,0) >= -90
MCLin6(4,1,0):  u(4,1,0) >= -0
MCLin7(4,1,0):  -63 y(1,4,0) - u(4,1,0) <= -0
MCLin8(4,1,0):  72 y(1,4,0) + v(4,1,0) - u(4,1,0) <= 72
MCLin9(4,1,0):  72 y(1,4,0) - u(4,1,0) >= -0
MCLin10(4,1,0):  -63 y(1,4,0) + v(4,1,0) - u(4,1,0) >= -63
MCLinV(1,4,1):  x(1,1) - v(1,4,1) - x(4,1) = 6
MCLinV(4,1,1):  - x(1,1) - v(4,1,1) + x(4,1) = 2
MCLin1(1,4,1):  u(1,4,1) >= -0
MCLin2(1,4,1):  -63 y(4,1,1) - u(1,4,1) <= -0
MCLin3(1,4,1):  72 y(4,1,1) + v(1,4,1) - u(1,4,1) <= 72
MCLin4(1,4,1):  72 y(4,1,1) - u(1,4,1) >= -0
MCLin5(1,4,1):  -63 y(4,1,1) + v(1,4,1) - u(1,4,1) >= -63
MCLin6(4,1,1):  u(4,1,1) >= -0
MCLin7(4,1,1):  -80 y(1,4,1) - u(4,1,1) <= -0
MCLin8(4,1,1):  55 y(1,4,1) + v(4,1,1) - u(4,1,1) <= 55
MCLin9(4,1,1):  55 y(1,4,1) - u(4,1,1) >= -0
MCLin10(4,1,1):  -80 y(1,4,1) + v(4,1,1) - u(4,1,1) >= -80
MCLinV(1,4,2):  x(1,2) - v(1,4,2) - x(4,2) = 9
MCLinV(4,1,2):  - x(1,2) - v(4,1,2) + x(4,2) = 10
MCLin1(1,4,2):  u(1,4,2) >= -0
MCLin2(1,4,2):  -70 y(4,1,2) - u(1,4,2) <= -0
MCLin3(1,4,2):  65 y(4,1,2) + v(1,4,2) - u(1,4,2) <= 65
MCLin4(1,4,2):  65 y(4,1,2) - u(1,4,2) >= -0
MCLin5(1,4,2):  -70 y(4,1,2) + v(1,4,2) - u(1,4,2) >= -70
MCLin6(4,1,2):  u(4,1,2) >= -0
MCLin7(4,1,2):  -84 y(1,4,2) - u(4,1,2) <= -0
MCLin8(4,1,2):  51 y(1,4,2) + v(4,1,2) - u(4,1,2) <= 51
MCLin9(4,1,2):  51 y(1,4,2) - u(4,1,2) >= -0
MCLin10(4,1,2):  -84 y(1,4,2) + v(4,1,2) - u(4,1,2) >= -84
MCLinV(2,3,0):  x(2,0) - v(2,3,0) - x(3,0) = 7
MCLinV(3,2,0):  - x(2,0) - v(3,2,0) + x(3,0) = 8
MCLin1(2,3,0):  u(2,3,0) >= -0
MCLin2(2,3,0):  -83 y(3,2,0) - u(2,3,0) <= -0
MCLin3(2,3,0):  63 y(3,2,0) + v(2,3,0) - u(2,3,0) <= 63
MCLin4(2,3,0):  63 y(3,2,0) - u(2,3,0) >= -0
MCLin5(2,3,0):  -83 y(3,2,0) + v(2,3,0) - u(2,3,0) >= -83
MCLin6(3,2,0):  u(3,2,0) >= -0
MCLin7(3,2,0):  -78 y(2,3,0) - u(3,2,0) <= -0
MCLin8(3,2,0):  68 y(2,3,0) + v(3,2,0) - u(3,2,0) <= 68
MCLin9(3,2,0):  68 y(2,3,0) - u(3,2,0) >= -0
MCLin10(3,2,0):  -78 y(2,3,0) + v(3,2,0) - u(3,2,0) >= -78
MCLinV(2,3,1):  x(2,1) - v(2,3,1) - x(3,1) = 3
MCLinV(3,2,1):  - x(2,1) - v(3,2,1) + x(3,1) = 4
MCLin1(2,3,1):  u(2,3,1) >= -0
MCLin2(2,3,1):  -80 y(3,2,1) - u(2,3,1) <= -0
MCLin3(2,3,1):  66 y(3,2,1) + v(2,3,1) - u(2,3,1) <= 66
MCLin4(2,3,1):  66 y(3,2,1) - u(2,3,1) >= -0
MCLin5(2,3,1):  -80 y(3,2,1) + v(2,3,1) - u(2,3,1) >= -80
MCLin6(3,2,1):  u(3,2,1) >= -0
MCLin7(3,2,1):  -73 y(2,3,1) - u(3,2,1) <= -0
MCLin8(3,2,1):  73 y(2,3,1) + v(3,2,1) - u(3,2,1) <= 73
MCLin9(3,2,1):  73 y(2,3,1) - u(3,2,1) >= -0
MCLin10(3,2,1):  -73 y(2,3,1) + v(3,2,1) - u(3,2,1) >= -73
MCLinV(2,3,2):  x(2,2) - v(2,3,2) - x(3,2) = 9
MCLinV(3,2,2):  - x(2,2) - v(3,2,2) + x(3,2) = 3
MCLin1(2,3,2):  u(2,3,2) >= -0
MCLin2(2,3,2):  -80 y(3,2,2) - u(2,3,2) <= -0
MCLin3(2,3,2):  66 y(3,2,2) + v(2,3,2) - u(2,3,2) <= 66
MCLin4(2,3,2):  66 y(3,2,2) - u(2,3,2) >= -0
MCLin5(2,3,2):  -80 y(3,2,2) + v(2,3,2) - u(2,3,2) >= -80
MCLin6(3,2,2):  u(3,2,2) >= -0
MCLin7(3,2,2):  -78 y(2,3,2) - u(3,2,2) <= -0
MCLin8(3,2,2):  68 y(2,3,2) + v(3,2,2) - u(3,2,2) <= 68
MCLin9(3,2,2):  68 y(2,3,2) - u(3,2,2) >= -0
MCLin10(3,2,2):  -78 y(2,3,2) + v(3,2,2) - u(3,2,2) >= -78
MCLinV(2,4,0):  x(2,0) - v(2,4,0) - x(4,0) = 10
MCLinV(4,2,0):  - x(2,0) - v(4,2,0) + x(4,0) = 8
MCLin1(2,4,0):  u(2,4,0) >= -0
MCLin2(2,4,0):  -83 y(4,2,0) - u(2,4,0) <= -0
MCLin3(2,4,0):  57 y(4,2,0) + v(2,4,0) - u(2,4,0) <= 57
MCLin4(2,4,0):  57 y(4,2,0) - u(2,4,0) >= -0
MCLin5(2,4,0):  -83 y(4,2,0) + v(2,4,0) - u(2,4,0) >= -83
MCLin6(4,2,0):  u(4,2,0) >= -0
MCLin7(4,2,0):  -75 y(2,4,0) - u(4,2,0) <= -0
MCLin8(4,2,0):  65 y(2,4,0) + v(4,2,0) - u(4,2,0) <= 65
MCLin9(4,2,0):  65 y(2,4,0) - u(4,2,0) >= -0
MCLin10(4,2,0):  -75 y(2,4,0) + v(4,2,0) - u(4,2,0) >= -75
MCLinV(2,4,1):  x(2,1) - v(2,4,1) - x(4,1) = 6
MCLinV(4,2,1):  - x(2,1) - v(4,2,1) + x(4,1) = 4
MCLin1(2,4,1):  u(2,4,1) >= -0
MCLin2(2,4,1):  -68 y(4,2,1) - u(2,4,1) <= -0
MCLin3(2,4,1):  72 y(4,2,1) + v(2,4,1) - u(2,4,1) <= 72
MCLin4(2,4,1):  72 y(4,2,1) - u(2,4,1) >= -0
MCLin5(2,4,1):  -68 y(4,2,1) + v(2,4,1) - u(2,4,1) >= -68
MCLin6(4,2,1):  u(4,2,1) >= -0
MCLin7(4,2,1):  -82 y(2,4,1) - u(4,2,1) <= -0
MCLin8(4,2,1):  58 y(2,4,1) + v(4,2,1) - u(4,2,1) <= 58
MCLin9(4,2,1):  58 y(2,4,1) - u(4,2,1) >= -0
MCLin10(4,2,1):  -82 y(2,4,1) + v(4,2,1) - u(4,2,1) >= -82
MCLinV(2,4,2):  x(2,2) - v(2,4,2) - x(4,2) = 9
MCLinV(4,2,2):  - x(2,2) - v(4,2,2) + x(4,2) = 3
MCLin1(2,4,2):  u(2,4,2) >= -0
MCLin2(2,4,2):  -80 y(4,2,2) - u(2,4,2) <= -0
MCLin3(2,4,2):  60 y(4,2,2) + v(2,4,2) - u(2,4,2) <= 60
MCLin4(2,4,2):  60 y(4,2,2) - u(2,4,2) >= -0
MCLin5(2,4,2):  -80 y(4,2,2) + v(2,4,2) - u(2,4,2) >= -80
MCLin6(4,2,2):  u(4,2,2) >= -0
MCLin7(4,2,2):  -72 y(2,4,2) - u(4,2,2) <= -0
MCLin8(4,2,2):  68 y(2,4,2) + v(4,2,2) - u(4,2,2) <= 68
MCLin9(4,2,2):  68 y(2,4,2) - u(4,2,2) >= -0
MCLin10(4,2,2):  -72 y(2,4,2) + v(4,2,2) - u(4,2,2) >= -72
MCLinV(3,4,0):  x(3,0) - v(3,4,0) - x(4,0) = 10
MCLinV(4,3,0):  - x(3,0) - v(4,3,0) + x(4,0) = 7
MCLin1(3,4,0):  u(3,4,0) >= -0
MCLin2(3,4,0):  -78 y(4,3,0) - u(3,4,0) <= -0
MCLin3(3,4,0):  58 y(4,3,0) + v(3,4,0) - u(3,4,0) <= 58
MCLin4(3,4,0):  58 y(4,3,0) - u(3,4,0) >= -0
MCLin5(3,4,0):  -78 y(4,3,0) + v(3,4,0) - u(3,4,0) >= -78
MCLin6(4,3,0):  u(4,3,0) >= -0
MCLin7(4,3,0):  -75 y(3,4,0) - u(4,3,0) <= -0
MCLin8(4,3,0):  61 y(3,4,0) + v(4,3,0) - u(4,3,0) <= 61
MCLin9(4,3,0):  61 y(3,4,0) - u(4,3,0) >= -0
MCLin10(4,3,0):  -75 y(3,4,0) + v(4,3,0) - u(4,3,0) >= -75
MCLinV(3,4,1):  x(3,1) - v(3,4,1) - x(4,1) = 6
MCLinV(4,3,1):  - x(3,1) - v(4,3,1) + x(4,1) = 3
MCLin1(3,4,1):  u(3,4,1) >= -0
MCLin2(3,4,1):  -62 y(4,3,1) - u(3,4,1) <= -0
MCLin3(3,4,1):  74 y(4,3,1) + v(3,4,1) - u(3,4,1) <= 74
MCLin4(3,4,1):  74 y(4,3,1) - u(3,4,1) >= -0
MCLin5(3,4,1):  -62 y(4,3,1) + v(3,4,1) - u(3,4,1) >= -62
MCLin6(4,3,1):  u(4,3,1) >= -0
MCLin7(4,3,1):  -83 y(3,4,1) - u(4,3,1) <= -0
MCLin8(4,3,1):  53 y(3,4,1) + v(4,3,1) - u(4,3,1) <= 53
MCLin9(4,3,1):  53 y(3,4,1) - u(4,3,1) >= -0
MCLin10(4,3,1):  -83 y(3,4,1) + v(4,3,1) - u(4,3,1) >= -83
MCLinV(3,4,2):  x(3,2) - v(3,4,2) - x(4,2) = 9
MCLinV(4,3,2):  - x(3,2) - v(4,3,2) + x(4,2) = 9
MCLin1(3,4,2):  u(3,4,2) >= -0
MCLin2(3,4,2):  -80 y(4,3,2) - u(3,4,2) <= -0
MCLin3(3,4,2):  56 y(4,3,2) + v(3,4,2) - u(3,4,2) <= 56
MCLin4(3,4,2):  56 y(4,3,2) - u(3,4,2) >= -0
MCLin5(3,4,2):  -80 y(4,3,2) + v(3,4,2) - u(3,4,2) >= -80
MCLin6(4,3,2):  u(4,3,2) >= -0
MCLin7(4,3,2):  -74 y(3,4,2) - u(4,3,2) <= -0
MCLin8(4,3,2):  62 y(3,4,2) + v(4,3,2) - u(4,3,2) <= 62
MCLin9(4,3,2):  62 y(3,4,2) - u(4,3,2) >= -0
MCLin10(4,3,2):  -74 y(3,4,2) + v(4,3,2) - u(4,3,2) >= -74
makespan(0):  C - x(0,2) >= 3
makespan(1):  C - x(1,2) >= 10
makespan(2):  C - x(2,0) >= 8
makespan(3):  C - x(3,0) >= 7
makespan(4):  C - x(4,0) >= 10
cut_clique_0(01234,0):  0.00993 x(0,0) + 0.00933 x(1,0) + 0.01325 x(2,0) + 0.01159 x(3,0) + 0.01656 x(4,0) >= 1
cut_clique_0(0234,0):  0.00183 x(0,0) + 0.00877 x(2,0) + 0.01896 x(3,0) + 0.02708 x(4,0) >= 1
cut_clique_0(0123,0):  0.01911 x(0,0) + 0.01745 x(1,0) + 0.02548 x(2,0) + 0.02229 x(3,0) >= 1
cut_clique_0(0124,0):  0.01546 x(0,0) + 0.01427 x(1,0) + 0.01804 x(2,0) + 0.02835 x(4,0) >= 1
cut_clique_0(1234,0):  0.00172 x(1,0) + 0.00880 x(2,0) + 0.01903 x(3,0) + 0.02718 x(4,0) >= 1
cut_clique_0(0134,0):  0.00494 x(0,0) + 0.00460 x(1,0) + 0.01830 x(3,0) + 0.03354 x(4,0) >= 1
cut_clique_0(023,0):  0.00358 x(0,0) + 0.01909 x(2,0) + 0.05251 x(3,0) >= 1
cut_clique_0(234,0):  0.00679 x(2,0) + 0.02051 x(3,0) + 0.02931 x(4,0) >= 1
cut_clique_0(024,0):  0.00278 x(0,0) + 0.00355 x(2,0) + 0.06038 x(4,0) >= 1
cut_clique_0(034,0):  0.01356 x(3,0) + 0.04407 x(4,0) >= 1
cut_clique_0(012,0):  0.03750 x(0,0) + 0.03281 x(1,0) + 0.05000 x(2,0) >= 1
cut_clique_0(013,0):  0.01176 x(0,0) + 0.01053 x(1,0) + 0.06471 x(3,0) >= 1
cut_clique_0(123,0):  0.00328 x(1,0) + 0.01923 x(2,0) + 0.05288 x(3,0) >= 1
cut_clique_0(124,0):  0.00257 x(1,0) + 0.00357 x(2,0) + 0.06071 x(4,0) >= 1
cut_clique_0(134,0):  0.01356 x(3,0) + 0.04407 x(4,0) >= 1
cut_clique_0(01234,1):  0.01818 x(0,1) + 0.01818 x(1,1) + 0.03636 x(2,1) + 0.02727 x(3,1) + 0.05455 x(4,1) >= 1
cut_clique_0(0123,1):  0.02083 x(1,1) + 0.08333 x(3,1) >= 1
cut_clique_0(0124,1):  0.02941 x(0,1) + 0.02941 x(1,1) + 0.05882 x(2,1) + 0.08824 x(4,1) >= 1
cut_clique_0(0234,1):  0.02381 x(0,1) + 0.03571 x(2,1) + 0.04762 x(3,1) + 0.07143 x(4,1) >= 1
cut_clique_0(0134,1):  0.02083 x(1,1) + 0.08333 x(3,1) >= 1
cut_clique_0(1234,1):  0.03097 x(1,1) + 0.02212 x(2,1) + 0.04646 x(3,1) + 0.01702 x(4,1) >= 1
cut_clique_0(123,1):  0.02083 x(1,1) + 0.08333 x(3,1) >= 1
cut_clique_0(013,1):  0.02083 x(1,1) + 0.08333 x(3,1) >= 1
cut_clique_0(024,1):  0.04545 x(0,1) + 0.09091 x(2,1) + 0.13636 x(4,1) >= 1
cut_clique_0(124,1):  0.07692 x(1,1) + 0.03846 x(2,1) + 0.02692 x(4,1) >= 1
cut_clique_0(134,1):  0.02083 x(1,1) + 0.08333 x(3,1) >= 1
cut_clique_0(234,1):  0.01515 x(2,1) + 0.09091 x(3,1) + 0.01136 x(4,1) >= 1
cut_clique_0(01234,2):  0.11111 x(2,2) + 0.33333 x(3,2) >= 1
cut_clique_0(0124,2):  0.01148 x(0,2) + 0.03826 x(1,2) + 0.02321 x(4,2) >= 1
cut_clique_0(0234,2):  0.11111 x(2,2) + 0.33333 x(3,2) >= 1
cut_clique_0(1234,2):  0.11111 x(2,2) + 0.33333 x(3,2) >= 1
cut_clique_0(0134,2):  0.02222 x(3,2) + 0.11111 x(4,2) >= 1
cut_clique_0(0123,2):  0.11111 x(2,2) + 0.33333 x(3,2) >= 1
cut_clique_0(234,2):  0.11111 x(2,2) + 0.33333 x(3,2) >= 1
cut_clique_0(014,2):  0.01148 x(0,2) + 0.03826 x(1,2) + 0.02321 x(4,2) >= 1
cut_clique_0(024,2):  0.04274 x(0,2) + 0.05983 x(4,2) >= 1
cut_clique_0(023,2):  0.11111 x(2,2) + 0.33333 x(3,2) >= 1
cut_clique_0(034,2):  0.02222 x(3,2) + 0.11111 x(4,2) >= 1
cut_clique_0(123,2):  0.11111 x(2,2) + 0.33333 x(3,2) >= 1
cut_clique_0(134,2):  0.02222 x(3,2) + 0.11111 x(4,2) >= 1
cut_clique_1(01234,0):  0.00339 x(0,0) + 0.00319 x(1,0) + 0.00534 x(2,0) + 0.01502 x(3,0) + 0.02842 x(4,0) >= 1
cut_clique_1(1234,0):  0.00175 x(1,0) + 0.00224 x(2,0) + 0.01225 x(3,0) + 0.04148 x(4,0) >= 1
cut_clique_1(01234,2):  0.00645 x(0,2) + 0.02151 x(1,2) + 0.00645 x(2,2) + 0.01290 x(3,2) + 0.02581 x(4,2) >= 1
cut_clique_1(1234,2):  0.02688 x(1,2) + 0.00806 x(2,2) + 0.01613 x(3,2) + 0.03226 x(4,2) >= 1
cut_clique_1(0134,2):  0.00870 x(0,2) + 0.02899 x(1,2) + 0.00683 x(3,2) + 0.02609 x(4,2) >= 1
cut_clique_1(134,2):  0.01307 x(1,2) + 0.01176 x(3,2) + 0.08497 x(4,2) >= 1
cut_clique_2(01234,0):  0.00907 x(0,0) + 0.00852 x(1,0) + 0.01077 x(2,0) + 0.01058 x(3,0) + 0.02120 x(4,0) >= 1
cut_clique_2(01234,2):  0.00703 x(0,2) + 0.02343 x(1,2) + 0.00618 x(2,2) + 0.01237 x(3,2) + 0.02109 x(4,2) >= 1
cut_clique_0:  0.01048 x(0,0) + 0.00280 x(1,0) + 0.01168 x(2,0) + 0.00993 x(3,0) + 0.01977 x(4,0) + 0.10932 x(4,1) >= 1
cut_clique_1:  0.00907 x(0,0) + 0.00279 x(1,0) + 0.01077 x(2,0) + 0.01058 x(3,0) + 0.02120 x(4,0) + 0.09457 x(4,1) >= 1
Bounds
 0 <= C <= 90
 2 <= x(0,0) <= 81
 0 <= y(0,1,0) <= 1
 0 <= y(1,0,0) <= 1
 -76 <= v(0,1,0) <= 73
 -87 <= v(1,0,0) <= 62
 -900 <= u(0,1,0)
 -900 <= u(1,0,0)
 0 <= y(0,2,0) <= 1
 0 <= y(2,0,0) <= 1
 -88 <= v(0,2,0) <= 66
 -80 <= v(2,0,0) <= 74
 -900 <= u(0,2,0)
 -900 <= u(2,0,0)
 0 <= y(0,3,0) <= 1
 0 <= y(3,0,0) <= 1
 -88 <= v(0,3,0) <= 62
 -75 <= v(3,0,0) <= 75
 -900 <= u(0,3,0)
 -900 <= u(3,0,0)
 0 <= y(0,4,0) <= 1
 0 <= y(4,0,0) <= 1
 -88 <= v(0,4,0) <= 56
 -72 <= v(4,0,0) <= 72
 -900 <= u(0,4,0)
 -900 <= u(4,0,0)
 0 <= x(1,0) <= 70
 0 <= y(1,2,0) <= 1
 0 <= y(2,1,0) <= 1
 -90 <= v(1,2,0) <= 55
 -71 <= v(2,1,0) <= 74
 -900 <= u(1,2,0)
 -900 <= u(2,1,0)
 0 <= y(1,3,0) <= 1
 0 <= y(3,1,0) <= 1
 -90 <= v(1,3,0) <= 51
 -66 <= v(3,1,0) <= 75
 -900 <= u(1,3,0)
 -900 <= u(3,1,0)
 0 <= y(1,4,0) <= 1
 0 <= y(4,1,0) <= 1
 -90 <= v(1,4,0) <= 45
 -63 <= v(4,1,0) <= 72
 -900 <= u(1,4,0)
 -900 <= u(4,1,0)
 7 <= x(2,0) <= 82
 0 <= y(2,3,0) <= 1
 0 <= y(3,2,0) <= 1
 -83 <= v(2,3,0) <= 63
 -78 <= v(3,2,0) <= 68
 -900 <= u(2,3,0)
 -900 <= u(3,2,0)
 0 <= y(2,4,0) <= 1
 0 <= y(4,2,0) <= 1
 -83 <= v(2,4,0) <= 57
 -75 <= v(4,2,0) <= 65
 -900 <= u(2,4,0)
 -900 <= u(4,2,0)
 12 <= x(3,0) <= 83
 0 <= y(3,4,0) <= 1
 0 <= y(4,3,0) <= 1
 -78 <= v(3,4,0) <= 58
 -75 <= v(4,3,0) <= 61
 -900 <= u(3,4,0)
 -900 <= u(4,3,0)
 15 <= x(4,0) <= 80
 0 <= x(0,1) <= 79
 0 <= y(0,1,1) <= 1
 0 <= y(1,0,1) <= 1
 -80 <= v(0,1,1) <= 69
 -73 <= v(1,0,1) <= 76
 -900 <= u(0,1,1)
 -900 <= u(1,0,1)
 0 <= y(0,2,1) <= 1
 0 <= y(2,0,1) <= 1
 -82 <= v(0,2,1) <= 72
 -78 <= v(2,0,1) <= 76
 -900 <= u(0,2,1)
 -900 <= u(2,0,1)
 0 <= y(0,3,1) <= 1
 0 <= y(3,0,1) <= 1
 -83 <= v(0,3,1) <= 67
 -72 <= v(3,0,1) <= 78
 -900 <= u(0,3,1)
 -900 <= u(3,0,1)
 0 <= y(0,4,1) <= 1
 0 <= y(4,0,1) <= 1
 -71 <= v(0,4,1) <= 73
 -81 <= v(4,0,1) <= 63
 -900 <= u(0,4,1)
 -900 <= u(4,0,1)
 8 <= x(1,1) <= 78
 0 <= y(1,2,1) <= 1
 0 <= y(2,1,1) <= 1
 -74 <= v(1,2,1) <= 71
 -77 <= v(2,1,1) <= 68
 -900 <= u(1,2,1)
 -900 <= u(2,1,1)
 0 <= y(1,3,1) <= 1
 0 <= y(3,1,1) <= 1
 -75 <= v(1,3,1) <= 66
 -71 <= v(3,1,1) <= 70
 -900 <= u(1,3,1)
 -900 <= u(3,1,1)
 0 <= y(1,4,1) <= 1
 0 <= y(4,1,1) <= 1
 -63 <= v(1,4,1) <= 72
 -80 <= v(4,1,1) <= 55
 -900 <= u(1,4,1)
 -900 <= u(4,1,1)
 3 <= x(2,1) <= 78
 0 <= y(2,3,1) <= 1
 0 <= y(3,2,1) <= 1
 -80 <= v(2,3,1) <= 66
 -73 <= v(3,2,1) <= 73
 -900 <= u(2,3,1)
 -900 <= u(3,2,1)
 0 <= y(2,4,1) <= 1
 0 <= y(4,2,1) <= 1
 -68 <= v(2,4,1) <= 72
 -82 <= v(4,2,1) <= 58
 -900 <= u(2,4,1)
 -900 <= u(4,2,1)
 9 <= x(3,1) <= 80
 0 <= y(3,4,1) <= 1
 0 <= y(4,3,1) <= 1
 -62 <= v(3,4,1) <= 74
 -83 <= v(4,3,1) <= 53
 -900 <= u(3,4,1)
 -900 <= u(4,3,1)
 0 <= x(4,1) <= 65
 8 <= x(0,2) <= 87
 0 <= y(0,1,2) <= 1
 0 <= y(1,0,2) <= 1
 -82 <= v(0,1,2) <= 67
 -80 <= v(1,0,2) <= 69
 -900 <= u(0,1,2)
 -900 <= u(1,0,2)
 0 <= y(0,2,2) <= 1
 0 <= y(2,0,2) <= 1
 -70 <= v(0,2,2) <= 84
 -90 <= v(2,0,2) <= 64
 -900 <= u(0,2,2)
 -900 <= u(2,0,2)
 0 <= y(0,3,2) <= 1
 0 <= y(3,0,2) <= 1
 -72 <= v(0,3,2) <= 78
 -90 <= v(3,0,2) <= 60
 -900 <= u(0,3,2)
 -900 <= u(3,0,2)
 0 <= y(0,4,2) <= 1
 0 <= y(4,0,2) <= 1
 -72 <= v(0,4,2) <= 72
 -84 <= v(4,0,2) <= 60
 -900 <= u(0,4,2)
 -900 <= u(4,0,2)
 10 <= x(1,2) <= 80
 0 <= y(1,2,2) <= 1
 0 <= y(2,1,2) <= 1
 -68 <= v(1,2,2) <= 77
 -90 <= v(2,1,2) <= 55
 -900 <= u(1,2,2)
 -900 <= u(2,1,2)
 0 <= y(1,3,2) <= 1
 0 <= y(3,1,2) <= 1
 -70 <= v(1,3,2) <= 71
 -90 <= v(3,1,2) <= 51
 -900 <= u(1,3,2)
 -900 <= u(3,1,2)
 0 <= y(1,4,2) <= 1
 0 <= y(4,1,2) <= 1
 -70 <= v(1,4,2) <= 65
 -84 <= v(4,1,2) <= 51
 -900 <= u(1,4,2)
 -900 <= u(4,1,2)
 0 <= x(2,2) <= 75
 0 <= y(2,3,2) <= 1
 0 <= y(3,2,2) <= 1
 -80 <= v(2,3,2) <= 66
 -78 <= v(3,2,2) <= 68
 -900 <= u(2,3,2)
 -900 <= u(3,2,2)
 0 <= y(2,4,2) <= 1
 0 <= y(4,2,2) <= 1
 -80 <= v(2,4,2) <= 60
 -72 <= v(4,2,2) <= 68
 -900 <= u(2,4,2)
 -900 <= u(4,2,2)
 0 <= x(3,2) <= 71
 0 <= y(3,4,2) <= 1
 0 <= y(4,3,2) <= 1
 -80 <= v(3,4,2) <= 56
 -74 <= v(4,3,2) <= 62
 -900 <= u(3,4,2)
 -900 <= u(4,3,2)
 6 <= x(4,2) <= 71
Integers
C x(0,0) y(0,1,0) y(1,0,0) v(0,1,0) v(1,0,0) u(0,1,0) u(1,0,0) y(0,2,0) y(2,0,0) 
v(0,2,0) v(2,0,0) u(0,2,0) u(2,0,0) y(0,3,0) y(3,0,0) v(0,3,0) v(3,0,0) u(0,3,0) u(3,0,0) 
y(0,4,0) y(4,0,0) v(0,4,0) v(4,0,0) u(0,4,0) u(4,0,0) x(1,0) y(1,2,0) y(2,1,0) v(1,2,0) 
v(2,1,0) u(1,2,0) u(2,1,0) y(1,3,0) y(3,1,0) v(1,3,0) v(3,1,0) u(1,3,0) u(3,1,0) y(1,4,0) 
y(4,1,0) v(1,4,0) v(4,1,0) u(1,4,0) u(4,1,0) x(2,0) y(2,3,0) y(3,2,0) v(2,3,0) v(3,2,0) 
u(2,3,0) u(3,2,0) y(2,4,0) y(4,2,0) v(2,4,0) v(4,2,0) u(2,4,0) u(4,2,0) x(3,0) y(3,4,0) 
y(4,3,0) v(3,4,0) v(4,3,0) u(3,4,0) u(4,3,0) x(4,0) x(0,1) y(0,1,1) y(1,0,1) v(0,1,1) 
v(1,0,1) u(0,1,1) u(1,0,1) y(0,2,1) y(2,0,1) v(0,2,1) v(2,0,1) u(0,2,1) u(2,0,1) y(0,3,1) 
y(3,0,1) v(0,3,1) v(3,0,1) u(0,3,1) u(3,0,1) y(0,4,1) y(4,0,1) v(0,4,1) v(4,0,1) u(0,4,1) 
u(4,0,1) x(1,1) y(1,2,1) y(2,1,1) v(1,2,1) v(2,1,1) u(1,2,1) u(2,1,1) y(1,3,1) y(3,1,1) 
v(1,3,1) v(3,1,1) u(1,3,1) u(3,1,1) y(1,4,1) y(4,1,1) v(1,4,1) v(4,1,1) u(1,4,1) u(4,1,1) 
x(2,1) y(2,3,1) y(3,2,1) v(2,3,1) v(3,2,1) u(2,3,1) u(3,2,1) y(2,4,1) y(4,2,1) v(2,4,1) 
v(4,2,1) u(2,4,1) u(4,2,1) x(3,1) y(3,4,1) y(4,3,1) v(3,4,1) v(4,3,1) u(3,4,1) u(4,3,1) 
x(4,1) x(0,2) y(0,1,2) y(1,0,2) v(0,1,2) v(1,0,2) u(0,1,2) u(1,0,2) y(0,2,2) y(2,0,2) 
v(0,2,2) v(2,0,2) u(0,2,2) u(2,0,2) y(0,3,2) y(3,0,2) v(0,3,2) v(3,0,2) u(0,3,2) u(3,0,2) 
y(0,4,2) y(4,0,2) v(0,4,2) v(4,0,2) u(0,4,2) u(4,0,2) x(1,2) y(1,2,2) y(2,1,2) v(1,2,2) 
v(2,1,2) u(1,2,2) u(2,1,2) y(1,3,2) y(3,1,2) v(1,3,2) v(3,1,2) u(1,3,2) u(3,1,2) y(1,4,2) 
y(4,1,2) v(1,4,2) v(4,1,2) u(1,4,2) u(4,1,2) x(2,2) y(2,3,2) y(3,2,2) v(2,3,2) v(3,2,2) 
u(2,3,2) u(3,2,2) y(2,4,2) y(4,2,2) v(2,4,2) v(4,2,2) u(2,4,2) u(4,2,2) x(3,2) y(3,4,2) 
y(4,3,2) v(3,4,2) v(4,3,2) u(3,4,2) u(4,3,2) x(4,2) 
End
